unsat
(define-fun f ((x0 (BitVec 64))) (BitVec 64) (bvmul x0 #b0000000000000000000000000000000000000000000000000000000000000011))
(define-fun f ((x0 (BitVec 64))) (BitVec 64) (bvmul x0 #b0000000000000000000000000000000000000000000000000000000000000011))
int-arith14.sl running time : 0 m .020621790 s
times : .020621790
